# Ví dụ 3 - Classic FP-Growth (Han et al. 2000)
# items: f=1,c=2,a=3,b=4,m=5,p=6 | minsup = 3
# Item frequencies: 1->4, 2->4, 3->3, 4->3, 5->3, 6->3
1 2 3 5 6
1 2 4 5
1 4
2 4 6
1 2 3 5 
