# Ví dụ 2 - Tình huống đặc biệt: FP-tree nhánh đơn (Chapter 2.2)
# 5 giao dịch, 5 items (1..5), minsup = 1
# Mọi giao dịch đều là tiền tố của giao dịch trước
# => FP-tree tạo thành 1 nhánh duy nhất: 1->2->3->4->5
# Expected: 2^5 - 1 = 31 frequent itemsets
1 2 3 4 5
1 2 3 4
1 2 3
1 2
1
